p cnf 1060 2977
-23 1 0
-23 -13 0
23 -1 13 0
-24 -12 0
-24 -23 0
24 12 23 0
-25 -11 0
-25 24 0
25 11 -24 0
-26 -10 0
-26 25 0
26 10 -25 0
-27 -9 0
-27 26 0
27 9 -26 0
-28 -8 0
-28 27 0
28 8 -27 0
-29 -7 0
-29 28 0
29 7 -28 0
-30 -6 0
-30 29 0
30 6 -29 0
-31 -5 0
-31 30 0
31 5 -30 0
-32 -4 0
-32 31 0
32 4 -31 0
-33 -3 0
-33 32 0
33 3 -32 0
-34 12 0
-34 23 0
34 -12 -23 0
-35 -24 0
-35 -34 0
35 24 34 0
-36 33 0
-36 35 0
36 -33 -35 0
-37 1 0
-37 -14 0
37 -1 14 0
-38 -12 0
-38 -37 0
38 12 37 0
-39 1 0
-39 33 0
39 -1 -33 0
-40 -13 0
-40 -39 0
40 13 39 0
-41 13 0
-41 39 0
41 -13 -39 0
-42 -40 0
-42 -41 0
42 40 41 0
-43 12 0
-43 37 0
43 -12 -37 0
-44 42 0
-44 -43 0
44 -42 43 0
-45 -38 0
-45 -44 0
45 38 44 0
-46 -11 0
-46 -45 0
46 11 45 0
-47 11 0
-47 45 0
47 -11 -45 0
-48 36 0
-48 -47 0
48 -36 47 0
-49 -46 0
-49 -48 0
49 46 48 0
-50 -10 0
-50 -49 0
50 10 49 0
-51 11 0
-51 -24 0
51 -11 24 0
-52 -25 0
-52 -51 0
52 25 51 0
-53 33 0
-53 52 0
53 -33 -52 0
-54 10 0
-54 49 0
54 -10 -49 0
-55 53 0
-55 -54 0
55 -53 54 0
-56 -50 0
-56 -55 0
56 50 55 0
-57 -9 0
-57 -56 0
57 9 56 0
-58 10 0
-58 -25 0
58 -10 25 0
-59 -26 0
-59 -58 0
59 26 58 0
-60 33 0
-60 59 0
60 -33 -59 0
-61 9 0
-61 56 0
61 -9 -56 0
-62 60 0
-62 -61 0
62 -60 61 0
-63 -57 0
-63 -62 0
63 57 62 0
-64 -8 0
-64 -63 0
64 8 63 0
-65 9 0
-65 -26 0
65 -9 26 0
-66 -27 0
-66 -65 0
66 27 65 0
-67 33 0
-67 66 0
67 -33 -66 0
-68 8 0
-68 63 0
68 -8 -63 0
-69 67 0
-69 -68 0
69 -67 68 0
-70 -64 0
-70 -69 0
70 64 69 0
-71 -7 0
-71 -70 0
71 7 70 0
-72 8 0
-72 -27 0
72 -8 27 0
-73 -28 0
-73 -72 0
73 28 72 0
-74 33 0
-74 73 0
74 -33 -73 0
-75 7 0
-75 70 0
75 -7 -70 0
-76 74 0
-76 -75 0
76 -74 75 0
-77 -71 0
-77 -76 0
77 71 76 0
-78 -6 0
-78 -77 0
78 6 77 0
-79 7 0
-79 -28 0
79 -7 28 0
-80 -29 0
-80 -79 0
80 29 79 0
-81 33 0
-81 80 0
81 -33 -80 0
-82 6 0
-82 77 0
82 -6 -77 0
-83 81 0
-83 -82 0
83 -81 82 0
-84 -78 0
-84 -83 0
84 78 83 0
-85 -5 0
-85 -84 0
85 5 84 0
-86 6 0
-86 -29 0
86 -6 29 0
-87 -30 0
-87 -86 0
87 30 86 0
-88 33 0
-88 87 0
88 -33 -87 0
-89 5 0
-89 84 0
89 -5 -84 0
-90 88 0
-90 -89 0
90 -88 89 0
-91 -85 0
-91 -90 0
91 85 90 0
-92 -4 0
-92 -91 0
92 4 91 0
-93 5 0
-93 -30 0
93 -5 30 0
-94 -31 0
-94 -93 0
94 31 93 0
-95 33 0
-95 94 0
95 -33 -94 0
-96 4 0
-96 91 0
96 -4 -91 0
-97 95 0
-97 -96 0
97 -95 96 0
-98 -92 0
-98 -97 0
98 92 97 0
-99 -3 0
-99 -98 0
99 3 98 0
-100 -46 0
-100 -47 0
100 46 47 0
-101 99 0
-101 100 0
101 -99 -100 0
-102 -36 0
-102 -101 0
102 36 101 0
-103 36 0
-103 101 0
103 -36 -101 0
-104 -102 0
-104 -103 0
104 102 103 0
-105 1 0
-105 -15 0
105 -1 15 0
-106 -12 0
-106 -105 0
106 12 105 0
-107 1 0
-107 99 0
107 -1 -99 0
-108 -14 0
-108 -107 0
108 14 107 0
-109 14 0
-109 107 0
109 -14 -107 0
-110 -108 0
-110 -109 0
110 108 109 0
-111 12 0
-111 105 0
111 -12 -105 0
-112 110 0
-112 -111 0
112 -110 111 0
-113 -106 0
-113 -112 0
113 106 112 0
-114 -11 0
-114 -113 0
114 11 113 0
-115 -38 0
-115 -43 0
115 38 43 0
-116 99 0
-116 115 0
116 -99 -115 0
-117 -42 0
-117 -116 0
117 42 116 0
-118 42 0
-118 116 0
118 -42 -116 0
-119 -117 0
-119 -118 0
119 117 118 0
-120 11 0
-120 113 0
120 -11 -113 0
-121 119 0
-121 -120 0
121 -119 120 0
-122 -114 0
-122 -121 0
122 114 121 0
-123 -10 0
-123 -122 0
123 10 122 0
-124 10 0
-124 122 0
124 -10 -122 0
-125 104 0
-125 -124 0
125 -104 124 0
-126 -123 0
-126 -125 0
126 123 125 0
-127 -9 0
-127 -126 0
127 9 126 0
-128 -50 0
-128 -54 0
128 50 54 0
-129 99 0
-129 128 0
129 -99 -128 0
-130 -53 0
-130 -129 0
130 53 129 0
-131 53 0
-131 129 0
131 -53 -129 0
-132 -130 0
-132 -131 0
132 130 131 0
-133 9 0
-133 126 0
133 -9 -126 0
-134 132 0
-134 -133 0
134 -132 133 0
-135 -127 0
-135 -134 0
135 127 134 0
-136 -8 0
-136 -135 0
136 8 135 0
-137 -57 0
-137 -61 0
137 57 61 0
-138 99 0
-138 137 0
138 -99 -137 0
-139 -60 0
-139 -138 0
139 60 138 0
-140 60 0
-140 138 0
140 -60 -138 0
-141 -139 0
-141 -140 0
141 139 140 0
-142 8 0
-142 135 0
142 -8 -135 0
-143 141 0
-143 -142 0
143 -141 142 0
-144 -136 0
-144 -143 0
144 136 143 0
-145 -7 0
-145 -144 0
145 7 144 0
-146 -64 0
-146 -68 0
146 64 68 0
-147 99 0
-147 146 0
147 -99 -146 0
-148 -67 0
-148 -147 0
148 67 147 0
-149 67 0
-149 147 0
149 -67 -147 0
-150 -148 0
-150 -149 0
150 148 149 0
-151 7 0
-151 144 0
151 -7 -144 0
-152 150 0
-152 -151 0
152 -150 151 0
-153 -145 0
-153 -152 0
153 145 152 0
-154 -6 0
-154 -153 0
154 6 153 0
-155 -71 0
-155 -75 0
155 71 75 0
-156 99 0
-156 155 0
156 -99 -155 0
-157 -74 0
-157 -156 0
157 74 156 0
-158 74 0
-158 156 0
158 -74 -156 0
-159 -157 0
-159 -158 0
159 157 158 0
-160 6 0
-160 153 0
160 -6 -153 0
-161 159 0
-161 -160 0
161 -159 160 0
-162 -154 0
-162 -161 0
162 154 161 0
-163 -5 0
-163 -162 0
163 5 162 0
-164 -78 0
-164 -82 0
164 78 82 0
-165 99 0
-165 164 0
165 -99 -164 0
-166 -81 0
-166 -165 0
166 81 165 0
-167 81 0
-167 165 0
167 -81 -165 0
-168 -166 0
-168 -167 0
168 166 167 0
-169 5 0
-169 162 0
169 -5 -162 0
-170 168 0
-170 -169 0
170 -168 169 0
-171 -163 0
-171 -170 0
171 163 170 0
-172 -4 0
-172 -171 0
172 4 171 0
-173 -85 0
-173 -89 0
173 85 89 0
-174 99 0
-174 173 0
174 -99 -173 0
-175 -88 0
-175 -174 0
175 88 174 0
-176 88 0
-176 174 0
176 -88 -174 0
-177 -175 0
-177 -176 0
177 175 176 0
-178 4 0
-178 171 0
178 -4 -171 0
-179 177 0
-179 -178 0
179 -177 178 0
-180 -172 0
-180 -179 0
180 172 179 0
-181 -3 0
-181 -180 0
181 3 180 0
-182 -92 0
-182 -96 0
182 92 96 0
-183 99 0
-183 182 0
183 -99 -182 0
-184 -95 0
-184 -183 0
184 95 183 0
-185 95 0
-185 183 0
185 -95 -183 0
-186 -184 0
-186 -185 0
186 184 185 0
-187 3 0
-187 180 0
187 -3 -180 0
-188 186 0
-188 -187 0
188 -186 187 0
-189 -181 0
-189 -188 0
189 181 188 0
-190 -123 0
-190 -124 0
190 123 124 0
-191 -189 0
-191 190 0
191 189 -190 0
-192 -104 0
-192 -191 0
192 104 191 0
-193 104 0
-193 191 0
193 -104 -191 0
-194 -192 0
-194 -193 0
194 192 193 0
-195 -181 0
-195 -187 0
195 181 187 0
-196 186 0
-196 -195 0
196 -186 195 0
-197 1 0
-197 -16 0
197 -1 16 0
-198 -12 0
-198 -197 0
198 12 197 0
-199 1 0
-199 -189 0
199 -1 189 0
-200 -15 0
-200 -199 0
200 15 199 0
-201 15 0
-201 199 0
201 -15 -199 0
-202 -200 0
-202 -201 0
202 200 201 0
-203 12 0
-203 197 0
203 -12 -197 0
-204 202 0
-204 -203 0
204 -202 203 0
-205 -198 0
-205 -204 0
205 198 204 0
-206 -11 0
-206 -205 0
206 11 205 0
-207 -106 0
-207 -111 0
207 106 111 0
-208 -189 0
-208 207 0
208 189 -207 0
-209 -110 0
-209 -208 0
209 110 208 0
-210 110 0
-210 208 0
210 -110 -208 0
-211 -209 0
-211 -210 0
211 209 210 0
-212 11 0
-212 205 0
212 -11 -205 0
-213 211 0
-213 -212 0
213 -211 212 0
-214 -206 0
-214 -213 0
214 206 213 0
-215 -10 0
-215 -214 0
215 10 214 0
-216 -114 0
-216 -120 0
216 114 120 0
-217 -189 0
-217 216 0
217 189 -216 0
-218 -119 0
-218 -217 0
218 119 217 0
-219 119 0
-219 217 0
219 -119 -217 0
-220 -218 0
-220 -219 0
220 218 219 0
-221 10 0
-221 214 0
221 -10 -214 0
-222 220 0
-222 -221 0
222 -220 221 0
-223 -215 0
-223 -222 0
223 215 222 0
-224 -9 0
-224 -223 0
224 9 223 0
-225 9 0
-225 223 0
225 -9 -223 0
-226 194 0
-226 -225 0
226 -194 225 0
-227 -224 0
-227 -226 0
227 224 226 0
-228 -8 0
-228 -227 0
228 8 227 0
-229 -127 0
-229 -133 0
229 127 133 0
-230 -189 0
-230 229 0
230 189 -229 0
-231 -132 0
-231 -230 0
231 132 230 0
-232 132 0
-232 230 0
232 -132 -230 0
-233 -231 0
-233 -232 0
233 231 232 0
-234 8 0
-234 227 0
234 -8 -227 0
-235 233 0
-235 -234 0
235 -233 234 0
-236 -228 0
-236 -235 0
236 228 235 0
-237 -7 0
-237 -236 0
237 7 236 0
-238 -136 0
-238 -142 0
238 136 142 0
-239 -189 0
-239 238 0
239 189 -238 0
-240 -141 0
-240 -239 0
240 141 239 0
-241 141 0
-241 239 0
241 -141 -239 0
-242 -240 0
-242 -241 0
242 240 241 0
-243 7 0
-243 236 0
243 -7 -236 0
-244 242 0
-244 -243 0
244 -242 243 0
-245 -237 0
-245 -244 0
245 237 244 0
-246 -6 0
-246 -245 0
246 6 245 0
-247 -145 0
-247 -151 0
247 145 151 0
-248 -189 0
-248 247 0
248 189 -247 0
-249 -150 0
-249 -248 0
249 150 248 0
-250 150 0
-250 248 0
250 -150 -248 0
-251 -249 0
-251 -250 0
251 249 250 0
-252 6 0
-252 245 0
252 -6 -245 0
-253 251 0
-253 -252 0
253 -251 252 0
-254 -246 0
-254 -253 0
254 246 253 0
-255 -5 0
-255 -254 0
255 5 254 0
-256 -154 0
-256 -160 0
256 154 160 0
-257 -189 0
-257 256 0
257 189 -256 0
-258 -159 0
-258 -257 0
258 159 257 0
-259 159 0
-259 257 0
259 -159 -257 0
-260 -258 0
-260 -259 0
260 258 259 0
-261 5 0
-261 254 0
261 -5 -254 0
-262 260 0
-262 -261 0
262 -260 261 0
-263 -255 0
-263 -262 0
263 255 262 0
-264 -4 0
-264 -263 0
264 4 263 0
-265 -163 0
-265 -169 0
265 163 169 0
-266 -189 0
-266 265 0
266 189 -265 0
-267 -168 0
-267 -266 0
267 168 266 0
-268 168 0
-268 266 0
268 -168 -266 0
-269 -267 0
-269 -268 0
269 267 268 0
-270 4 0
-270 263 0
270 -4 -263 0
-271 269 0
-271 -270 0
271 -269 270 0
-272 -264 0
-272 -271 0
272 264 271 0
-273 -3 0
-273 -272 0
273 3 272 0
-274 -172 0
-274 -178 0
274 172 178 0
-275 -189 0
-275 274 0
275 189 -274 0
-276 -177 0
-276 -275 0
276 177 275 0
-277 177 0
-277 275 0
277 -177 -275 0
-278 -276 0
-278 -277 0
278 276 277 0
-279 3 0
-279 272 0
279 -3 -272 0
-280 278 0
-280 -279 0
280 -278 279 0
-281 -273 0
-281 -280 0
281 273 280 0
-282 -196 0
-282 281 0
282 196 -281 0
-283 -224 0
-283 -225 0
283 224 225 0
-284 -282 0
-284 283 0
284 282 -283 0
-285 -194 0
-285 -284 0
285 194 284 0
-286 194 0
-286 284 0
286 -194 -284 0
-287 -285 0
-287 -286 0
287 285 286 0
-288 -273 0
-288 -279 0
288 273 279 0
-289 -282 0
-289 288 0
289 282 -288 0
-290 -278 0
-290 -289 0
290 278 289 0
-291 278 0
-291 289 0
291 -278 -289 0
-292 -290 0
-292 -291 0
292 290 291 0
-293 1 0
-293 -17 0
293 -1 17 0
-294 -12 0
-294 -293 0
294 12 293 0
-295 1 0
-295 -282 0
295 -1 282 0
-296 -16 0
-296 -295 0
296 16 295 0
-297 16 0
-297 295 0
297 -16 -295 0
-298 -296 0
-298 -297 0
298 296 297 0
-299 12 0
-299 293 0
299 -12 -293 0
-300 298 0
-300 -299 0
300 -298 299 0
-301 -294 0
-301 -300 0
301 294 300 0
-302 -11 0
-302 -301 0
302 11 301 0
-303 -198 0
-303 -203 0
303 198 203 0
-304 -282 0
-304 303 0
304 282 -303 0
-305 -202 0
-305 -304 0
305 202 304 0
-306 202 0
-306 304 0
306 -202 -304 0
-307 -305 0
-307 -306 0
307 305 306 0
-308 11 0
-308 301 0
308 -11 -301 0
-309 307 0
-309 -308 0
309 -307 308 0
-310 -302 0
-310 -309 0
310 302 309 0
-311 -10 0
-311 -310 0
311 10 310 0
-312 -206 0
-312 -212 0
312 206 212 0
-313 -282 0
-313 312 0
313 282 -312 0
-314 -211 0
-314 -313 0
314 211 313 0
-315 211 0
-315 313 0
315 -211 -313 0
-316 -314 0
-316 -315 0
316 314 315 0
-317 10 0
-317 310 0
317 -10 -310 0
-318 316 0
-318 -317 0
318 -316 317 0
-319 -311 0
-319 -318 0
319 311 318 0
-320 -9 0
-320 -319 0
320 9 319 0
-321 -215 0
-321 -221 0
321 215 221 0
-322 -282 0
-322 321 0
322 282 -321 0
-323 -220 0
-323 -322 0
323 220 322 0
-324 220 0
-324 322 0
324 -220 -322 0
-325 -323 0
-325 -324 0
325 323 324 0
-326 9 0
-326 319 0
326 -9 -319 0
-327 325 0
-327 -326 0
327 -325 326 0
-328 -320 0
-328 -327 0
328 320 327 0
-329 -8 0
-329 -328 0
329 8 328 0
-330 8 0
-330 328 0
330 -8 -328 0
-331 287 0
-331 -330 0
331 -287 330 0
-332 -329 0
-332 -331 0
332 329 331 0
-333 -7 0
-333 -332 0
333 7 332 0
-334 -228 0
-334 -234 0
334 228 234 0
-335 -282 0
-335 334 0
335 282 -334 0
-336 -233 0
-336 -335 0
336 233 335 0
-337 233 0
-337 335 0
337 -233 -335 0
-338 -336 0
-338 -337 0
338 336 337 0
-339 7 0
-339 332 0
339 -7 -332 0
-340 338 0
-340 -339 0
340 -338 339 0
-341 -333 0
-341 -340 0
341 333 340 0
-342 -6 0
-342 -341 0
342 6 341 0
-343 -237 0
-343 -243 0
343 237 243 0
-344 -282 0
-344 343 0
344 282 -343 0
-345 -242 0
-345 -344 0
345 242 344 0
-346 242 0
-346 344 0
346 -242 -344 0
-347 -345 0
-347 -346 0
347 345 346 0
-348 6 0
-348 341 0
348 -6 -341 0
-349 347 0
-349 -348 0
349 -347 348 0
-350 -342 0
-350 -349 0
350 342 349 0
-351 -5 0
-351 -350 0
351 5 350 0
-352 -246 0
-352 -252 0
352 246 252 0
-353 -282 0
-353 352 0
353 282 -352 0
-354 -251 0
-354 -353 0
354 251 353 0
-355 251 0
-355 353 0
355 -251 -353 0
-356 -354 0
-356 -355 0
356 354 355 0
-357 5 0
-357 350 0
357 -5 -350 0
-358 356 0
-358 -357 0
358 -356 357 0
-359 -351 0
-359 -358 0
359 351 358 0
-360 -4 0
-360 -359 0
360 4 359 0
-361 -255 0
-361 -261 0
361 255 261 0
-362 -282 0
-362 361 0
362 282 -361 0
-363 -260 0
-363 -362 0
363 260 362 0
-364 260 0
-364 362 0
364 -260 -362 0
-365 -363 0
-365 -364 0
365 363 364 0
-366 4 0
-366 359 0
366 -4 -359 0
-367 365 0
-367 -366 0
367 -365 366 0
-368 -360 0
-368 -367 0
368 360 367 0
-369 -3 0
-369 -368 0
369 3 368 0
-370 -264 0
-370 -270 0
370 264 270 0
-371 -282 0
-371 370 0
371 282 -370 0
-372 -269 0
-372 -371 0
372 269 371 0
-373 269 0
-373 371 0
373 -269 -371 0
-374 -372 0
-374 -373 0
374 372 373 0
-375 3 0
-375 368 0
375 -3 -368 0
-376 374 0
-376 -375 0
376 -374 375 0
-377 -369 0
-377 -376 0
377 369 376 0
-378 -292 0
-378 377 0
378 292 -377 0
-379 -329 0
-379 -330 0
379 329 330 0
-380 -378 0
-380 379 0
380 378 -379 0
-381 -287 0
-381 -380 0
381 287 380 0
-382 287 0
-382 380 0
382 -287 -380 0
-383 -381 0
-383 -382 0
383 381 382 0
-384 -369 0
-384 -375 0
384 369 375 0
-385 -378 0
-385 384 0
385 378 -384 0
-386 -374 0
-386 -385 0
386 374 385 0
-387 374 0
-387 385 0
387 -374 -385 0
-388 -386 0
-388 -387 0
388 386 387 0
-389 1 0
-389 -18 0
389 -1 18 0
-390 -12 0
-390 -389 0
390 12 389 0
-391 1 0
-391 -378 0
391 -1 378 0
-392 -17 0
-392 -391 0
392 17 391 0
-393 17 0
-393 391 0
393 -17 -391 0
-394 -392 0
-394 -393 0
394 392 393 0
-395 12 0
-395 389 0
395 -12 -389 0
-396 394 0
-396 -395 0
396 -394 395 0
-397 -390 0
-397 -396 0
397 390 396 0
-398 -11 0
-398 -397 0
398 11 397 0
-399 -294 0
-399 -299 0
399 294 299 0
-400 -378 0
-400 399 0
400 378 -399 0
-401 -298 0
-401 -400 0
401 298 400 0
-402 298 0
-402 400 0
402 -298 -400 0
-403 -401 0
-403 -402 0
403 401 402 0
-404 11 0
-404 397 0
404 -11 -397 0
-405 403 0
-405 -404 0
405 -403 404 0
-406 -398 0
-406 -405 0
406 398 405 0
-407 -10 0
-407 -406 0
407 10 406 0
-408 -302 0
-408 -308 0
408 302 308 0
-409 -378 0
-409 408 0
409 378 -408 0
-410 -307 0
-410 -409 0
410 307 409 0
-411 307 0
-411 409 0
411 -307 -409 0
-412 -410 0
-412 -411 0
412 410 411 0
-413 10 0
-413 406 0
413 -10 -406 0
-414 412 0
-414 -413 0
414 -412 413 0
-415 -407 0
-415 -414 0
415 407 414 0
-416 -9 0
-416 -415 0
416 9 415 0
-417 -311 0
-417 -317 0
417 311 317 0
-418 -378 0
-418 417 0
418 378 -417 0
-419 -316 0
-419 -418 0
419 316 418 0
-420 316 0
-420 418 0
420 -316 -418 0
-421 -419 0
-421 -420 0
421 419 420 0
-422 9 0
-422 415 0
422 -9 -415 0
-423 421 0
-423 -422 0
423 -421 422 0
-424 -416 0
-424 -423 0
424 416 423 0
-425 -8 0
-425 -424 0
425 8 424 0
-426 -320 0
-426 -326 0
426 320 326 0
-427 -378 0
-427 426 0
427 378 -426 0
-428 -325 0
-428 -427 0
428 325 427 0
-429 325 0
-429 427 0
429 -325 -427 0
-430 -428 0
-430 -429 0
430 428 429 0
-431 8 0
-431 424 0
431 -8 -424 0
-432 430 0
-432 -431 0
432 -430 431 0
-433 -425 0
-433 -432 0
433 425 432 0
-434 -7 0
-434 -433 0
434 7 433 0
-435 7 0
-435 433 0
435 -7 -433 0
-436 383 0
-436 -435 0
436 -383 435 0
-437 -434 0
-437 -436 0
437 434 436 0
-438 -6 0
-438 -437 0
438 6 437 0
-439 -333 0
-439 -339 0
439 333 339 0
-440 -378 0
-440 439 0
440 378 -439 0
-441 -338 0
-441 -440 0
441 338 440 0
-442 338 0
-442 440 0
442 -338 -440 0
-443 -441 0
-443 -442 0
443 441 442 0
-444 6 0
-444 437 0
444 -6 -437 0
-445 443 0
-445 -444 0
445 -443 444 0
-446 -438 0
-446 -445 0
446 438 445 0
-447 -5 0
-447 -446 0
447 5 446 0
-448 -342 0
-448 -348 0
448 342 348 0
-449 -378 0
-449 448 0
449 378 -448 0
-450 -347 0
-450 -449 0
450 347 449 0
-451 347 0
-451 449 0
451 -347 -449 0
-452 -450 0
-452 -451 0
452 450 451 0
-453 5 0
-453 446 0
453 -5 -446 0
-454 452 0
-454 -453 0
454 -452 453 0
-455 -447 0
-455 -454 0
455 447 454 0
-456 -4 0
-456 -455 0
456 4 455 0
-457 -351 0
-457 -357 0
457 351 357 0
-458 -378 0
-458 457 0
458 378 -457 0
-459 -356 0
-459 -458 0
459 356 458 0
-460 356 0
-460 458 0
460 -356 -458 0
-461 -459 0
-461 -460 0
461 459 460 0
-462 4 0
-462 455 0
462 -4 -455 0
-463 461 0
-463 -462 0
463 -461 462 0
-464 -456 0
-464 -463 0
464 456 463 0
-465 -3 0
-465 -464 0
465 3 464 0
-466 -360 0
-466 -366 0
466 360 366 0
-467 -378 0
-467 466 0
467 378 -466 0
-468 -365 0
-468 -467 0
468 365 467 0
-469 365 0
-469 467 0
469 -365 -467 0
-470 -468 0
-470 -469 0
470 468 469 0
-471 3 0
-471 464 0
471 -3 -464 0
-472 470 0
-472 -471 0
472 -470 471 0
-473 -465 0
-473 -472 0
473 465 472 0
-474 -388 0
-474 473 0
474 388 -473 0
-475 -434 0
-475 -435 0
475 434 435 0
-476 -474 0
-476 475 0
476 474 -475 0
-477 -383 0
-477 -476 0
477 383 476 0
-478 383 0
-478 476 0
478 -383 -476 0
-479 -477 0
-479 -478 0
479 477 478 0
-480 -465 0
-480 -471 0
480 465 471 0
-481 -474 0
-481 480 0
481 474 -480 0
-482 -470 0
-482 -481 0
482 470 481 0
-483 470 0
-483 481 0
483 -470 -481 0
-484 -482 0
-484 -483 0
484 482 483 0
-485 1 0
-485 -19 0
485 -1 19 0
-486 -12 0
-486 -485 0
486 12 485 0
-487 1 0
-487 -474 0
487 -1 474 0
-488 -18 0
-488 -487 0
488 18 487 0
-489 18 0
-489 487 0
489 -18 -487 0
-490 -488 0
-490 -489 0
490 488 489 0
-491 12 0
-491 485 0
491 -12 -485 0
-492 490 0
-492 -491 0
492 -490 491 0
-493 -486 0
-493 -492 0
493 486 492 0
-494 -11 0
-494 -493 0
494 11 493 0
-495 -390 0
-495 -395 0
495 390 395 0
-496 -474 0
-496 495 0
496 474 -495 0
-497 -394 0
-497 -496 0
497 394 496 0
-498 394 0
-498 496 0
498 -394 -496 0
-499 -497 0
-499 -498 0
499 497 498 0
-500 11 0
-500 493 0
500 -11 -493 0
-501 499 0
-501 -500 0
501 -499 500 0
-502 -494 0
-502 -501 0
502 494 501 0
-503 -10 0
-503 -502 0
503 10 502 0
-504 -398 0
-504 -404 0
504 398 404 0
-505 -474 0
-505 504 0
505 474 -504 0
-506 -403 0
-506 -505 0
506 403 505 0
-507 403 0
-507 505 0
507 -403 -505 0
-508 -506 0
-508 -507 0
508 506 507 0
-509 10 0
-509 502 0
509 -10 -502 0
-510 508 0
-510 -509 0
510 -508 509 0
-511 -503 0
-511 -510 0
511 503 510 0
-512 -9 0
-512 -511 0
512 9 511 0
-513 -407 0
-513 -413 0
513 407 413 0
-514 -474 0
-514 513 0
514 474 -513 0
-515 -412 0
-515 -514 0
515 412 514 0
-516 412 0
-516 514 0
516 -412 -514 0
-517 -515 0
-517 -516 0
517 515 516 0
-518 9 0
-518 511 0
518 -9 -511 0
-519 517 0
-519 -518 0
519 -517 518 0
-520 -512 0
-520 -519 0
520 512 519 0
-521 -8 0
-521 -520 0
521 8 520 0
-522 -416 0
-522 -422 0
522 416 422 0
-523 -474 0
-523 522 0
523 474 -522 0
-524 -421 0
-524 -523 0
524 421 523 0
-525 421 0
-525 523 0
525 -421 -523 0
-526 -524 0
-526 -525 0
526 524 525 0
-527 8 0
-527 520 0
527 -8 -520 0
-528 526 0
-528 -527 0
528 -526 527 0
-529 -521 0
-529 -528 0
529 521 528 0
-530 -7 0
-530 -529 0
530 7 529 0
-531 -425 0
-531 -431 0
531 425 431 0
-532 -474 0
-532 531 0
532 474 -531 0
-533 -430 0
-533 -532 0
533 430 532 0
-534 430 0
-534 532 0
534 -430 -532 0
-535 -533 0
-535 -534 0
535 533 534 0
-536 7 0
-536 529 0
536 -7 -529 0
-537 535 0
-537 -536 0
537 -535 536 0
-538 -530 0
-538 -537 0
538 530 537 0
-539 -6 0
-539 -538 0
539 6 538 0
-540 6 0
-540 538 0
540 -6 -538 0
-541 479 0
-541 -540 0
541 -479 540 0
-542 -539 0
-542 -541 0
542 539 541 0
-543 -5 0
-543 -542 0
543 5 542 0
-544 -438 0
-544 -444 0
544 438 444 0
-545 -474 0
-545 544 0
545 474 -544 0
-546 -443 0
-546 -545 0
546 443 545 0
-547 443 0
-547 545 0
547 -443 -545 0
-548 -546 0
-548 -547 0
548 546 547 0
-549 5 0
-549 542 0
549 -5 -542 0
-550 548 0
-550 -549 0
550 -548 549 0
-551 -543 0
-551 -550 0
551 543 550 0
-552 -4 0
-552 -551 0
552 4 551 0
-553 -447 0
-553 -453 0
553 447 453 0
-554 -474 0
-554 553 0
554 474 -553 0
-555 -452 0
-555 -554 0
555 452 554 0
-556 452 0
-556 554 0
556 -452 -554 0
-557 -555 0
-557 -556 0
557 555 556 0
-558 4 0
-558 551 0
558 -4 -551 0
-559 557 0
-559 -558 0
559 -557 558 0
-560 -552 0
-560 -559 0
560 552 559 0
-561 -3 0
-561 -560 0
561 3 560 0
-562 -456 0
-562 -462 0
562 456 462 0
-563 -474 0
-563 562 0
563 474 -562 0
-564 -461 0
-564 -563 0
564 461 563 0
-565 461 0
-565 563 0
565 -461 -563 0
-566 -564 0
-566 -565 0
566 564 565 0
-567 3 0
-567 560 0
567 -3 -560 0
-568 566 0
-568 -567 0
568 -566 567 0
-569 -561 0
-569 -568 0
569 561 568 0
-570 -484 0
-570 569 0
570 484 -569 0
-571 -539 0
-571 -540 0
571 539 540 0
-572 -570 0
-572 571 0
572 570 -571 0
-573 -479 0
-573 -572 0
573 479 572 0
-574 479 0
-574 572 0
574 -479 -572 0
-575 -573 0
-575 -574 0
575 573 574 0
-576 -561 0
-576 -567 0
576 561 567 0
-577 -570 0
-577 576 0
577 570 -576 0
-578 -566 0
-578 -577 0
578 566 577 0
-579 566 0
-579 577 0
579 -566 -577 0
-580 -578 0
-580 -579 0
580 578 579 0
-581 1 0
-581 -20 0
581 -1 20 0
-582 -12 0
-582 -581 0
582 12 581 0
-583 1 0
-583 -570 0
583 -1 570 0
-584 -19 0
-584 -583 0
584 19 583 0
-585 19 0
-585 583 0
585 -19 -583 0
-586 -584 0
-586 -585 0
586 584 585 0
-587 12 0
-587 581 0
587 -12 -581 0
-588 586 0
-588 -587 0
588 -586 587 0
-589 -582 0
-589 -588 0
589 582 588 0
-590 -11 0
-590 -589 0
590 11 589 0
-591 -486 0
-591 -491 0
591 486 491 0
-592 -570 0
-592 591 0
592 570 -591 0
-593 -490 0
-593 -592 0
593 490 592 0
-594 490 0
-594 592 0
594 -490 -592 0
-595 -593 0
-595 -594 0
595 593 594 0
-596 11 0
-596 589 0
596 -11 -589 0
-597 595 0
-597 -596 0
597 -595 596 0
-598 -590 0
-598 -597 0
598 590 597 0
-599 -10 0
-599 -598 0
599 10 598 0
-600 -494 0
-600 -500 0
600 494 500 0
-601 -570 0
-601 600 0
601 570 -600 0
-602 -499 0
-602 -601 0
602 499 601 0
-603 499 0
-603 601 0
603 -499 -601 0
-604 -602 0
-604 -603 0
604 602 603 0
-605 10 0
-605 598 0
605 -10 -598 0
-606 604 0
-606 -605 0
606 -604 605 0
-607 -599 0
-607 -606 0
607 599 606 0
-608 -9 0
-608 -607 0
608 9 607 0
-609 -503 0
-609 -509 0
609 503 509 0
-610 -570 0
-610 609 0
610 570 -609 0
-611 -508 0
-611 -610 0
611 508 610 0
-612 508 0
-612 610 0
612 -508 -610 0
-613 -611 0
-613 -612 0
613 611 612 0
-614 9 0
-614 607 0
614 -9 -607 0
-615 613 0
-615 -614 0
615 -613 614 0
-616 -608 0
-616 -615 0
616 608 615 0
-617 -8 0
-617 -616 0
617 8 616 0
-618 -512 0
-618 -518 0
618 512 518 0
-619 -570 0
-619 618 0
619 570 -618 0
-620 -517 0
-620 -619 0
620 517 619 0
-621 517 0
-621 619 0
621 -517 -619 0
-622 -620 0
-622 -621 0
622 620 621 0
-623 8 0
-623 616 0
623 -8 -616 0
-624 622 0
-624 -623 0
624 -622 623 0
-625 -617 0
-625 -624 0
625 617 624 0
-626 -7 0
-626 -625 0
626 7 625 0
-627 -521 0
-627 -527 0
627 521 527 0
-628 -570 0
-628 627 0
628 570 -627 0
-629 -526 0
-629 -628 0
629 526 628 0
-630 526 0
-630 628 0
630 -526 -628 0
-631 -629 0
-631 -630 0
631 629 630 0
-632 7 0
-632 625 0
632 -7 -625 0
-633 631 0
-633 -632 0
633 -631 632 0
-634 -626 0
-634 -633 0
634 626 633 0
-635 -6 0
-635 -634 0
635 6 634 0
-636 -530 0
-636 -536 0
636 530 536 0
-637 -570 0
-637 636 0
637 570 -636 0
-638 -535 0
-638 -637 0
638 535 637 0
-639 535 0
-639 637 0
639 -535 -637 0
-640 -638 0
-640 -639 0
640 638 639 0
-641 6 0
-641 634 0
641 -6 -634 0
-642 640 0
-642 -641 0
642 -640 641 0
-643 -635 0
-643 -642 0
643 635 642 0
-644 -5 0
-644 -643 0
644 5 643 0
-645 5 0
-645 643 0
645 -5 -643 0
-646 575 0
-646 -645 0
646 -575 645 0
-647 -644 0
-647 -646 0
647 644 646 0
-648 -4 0
-648 -647 0
648 4 647 0
-649 -543 0
-649 -549 0
649 543 549 0
-650 -570 0
-650 649 0
650 570 -649 0
-651 -548 0
-651 -650 0
651 548 650 0
-652 548 0
-652 650 0
652 -548 -650 0
-653 -651 0
-653 -652 0
653 651 652 0
-654 4 0
-654 647 0
654 -4 -647 0
-655 653 0
-655 -654 0
655 -653 654 0
-656 -648 0
-656 -655 0
656 648 655 0
-657 -3 0
-657 -656 0
657 3 656 0
-658 -552 0
-658 -558 0
658 552 558 0
-659 -570 0
-659 658 0
659 570 -658 0
-660 -557 0
-660 -659 0
660 557 659 0
-661 557 0
-661 659 0
661 -557 -659 0
-662 -660 0
-662 -661 0
662 660 661 0
-663 3 0
-663 656 0
663 -3 -656 0
-664 662 0
-664 -663 0
664 -662 663 0
-665 -657 0
-665 -664 0
665 657 664 0
-666 -580 0
-666 665 0
666 580 -665 0
-667 -644 0
-667 -645 0
667 644 645 0
-668 -666 0
-668 667 0
668 666 -667 0
-669 -575 0
-669 -668 0
669 575 668 0
-670 575 0
-670 668 0
670 -575 -668 0
-671 -669 0
-671 -670 0
671 669 670 0
-672 -657 0
-672 -663 0
672 657 663 0
-673 -666 0
-673 672 0
673 666 -672 0
-674 -662 0
-674 -673 0
674 662 673 0
-675 662 0
-675 673 0
675 -662 -673 0
-676 -674 0
-676 -675 0
676 674 675 0
-677 1 0
-677 -21 0
677 -1 21 0
-678 -12 0
-678 -677 0
678 12 677 0
-679 1 0
-679 -666 0
679 -1 666 0
-680 -20 0
-680 -679 0
680 20 679 0
-681 20 0
-681 679 0
681 -20 -679 0
-682 -680 0
-682 -681 0
682 680 681 0
-683 12 0
-683 677 0
683 -12 -677 0
-684 682 0
-684 -683 0
684 -682 683 0
-685 -678 0
-685 -684 0
685 678 684 0
-686 -11 0
-686 -685 0
686 11 685 0
-687 -582 0
-687 -587 0
687 582 587 0
-688 -666 0
-688 687 0
688 666 -687 0
-689 -586 0
-689 -688 0
689 586 688 0
-690 586 0
-690 688 0
690 -586 -688 0
-691 -689 0
-691 -690 0
691 689 690 0
-692 11 0
-692 685 0
692 -11 -685 0
-693 691 0
-693 -692 0
693 -691 692 0
-694 -686 0
-694 -693 0
694 686 693 0
-695 -10 0
-695 -694 0
695 10 694 0
-696 -590 0
-696 -596 0
696 590 596 0
-697 -666 0
-697 696 0
697 666 -696 0
-698 -595 0
-698 -697 0
698 595 697 0
-699 595 0
-699 697 0
699 -595 -697 0
-700 -698 0
-700 -699 0
700 698 699 0
-701 10 0
-701 694 0
701 -10 -694 0
-702 700 0
-702 -701 0
702 -700 701 0
-703 -695 0
-703 -702 0
703 695 702 0
-704 -9 0
-704 -703 0
704 9 703 0
-705 -599 0
-705 -605 0
705 599 605 0
-706 -666 0
-706 705 0
706 666 -705 0
-707 -604 0
-707 -706 0
707 604 706 0
-708 604 0
-708 706 0
708 -604 -706 0
-709 -707 0
-709 -708 0
709 707 708 0
-710 9 0
-710 703 0
710 -9 -703 0
-711 709 0
-711 -710 0
711 -709 710 0
-712 -704 0
-712 -711 0
712 704 711 0
-713 -8 0
-713 -712 0
713 8 712 0
-714 -608 0
-714 -614 0
714 608 614 0
-715 -666 0
-715 714 0
715 666 -714 0
-716 -613 0
-716 -715 0
716 613 715 0
-717 613 0
-717 715 0
717 -613 -715 0
-718 -716 0
-718 -717 0
718 716 717 0
-719 8 0
-719 712 0
719 -8 -712 0
-720 718 0
-720 -719 0
720 -718 719 0
-721 -713 0
-721 -720 0
721 713 720 0
-722 -7 0
-722 -721 0
722 7 721 0
-723 -617 0
-723 -623 0
723 617 623 0
-724 -666 0
-724 723 0
724 666 -723 0
-725 -622 0
-725 -724 0
725 622 724 0
-726 622 0
-726 724 0
726 -622 -724 0
-727 -725 0
-727 -726 0
727 725 726 0
-728 7 0
-728 721 0
728 -7 -721 0
-729 727 0
-729 -728 0
729 -727 728 0
-730 -722 0
-730 -729 0
730 722 729 0
-731 -6 0
-731 -730 0
731 6 730 0
-732 -626 0
-732 -632 0
732 626 632 0
-733 -666 0
-733 732 0
733 666 -732 0
-734 -631 0
-734 -733 0
734 631 733 0
-735 631 0
-735 733 0
735 -631 -733 0
-736 -734 0
-736 -735 0
736 734 735 0
-737 6 0
-737 730 0
737 -6 -730 0
-738 736 0
-738 -737 0
738 -736 737 0
-739 -731 0
-739 -738 0
739 731 738 0
-740 -5 0
-740 -739 0
740 5 739 0
-741 -635 0
-741 -641 0
741 635 641 0
-742 -666 0
-742 741 0
742 666 -741 0
-743 -640 0
-743 -742 0
743 640 742 0
-744 640 0
-744 742 0
744 -640 -742 0
-745 -743 0
-745 -744 0
745 743 744 0
-746 5 0
-746 739 0
746 -5 -739 0
-747 745 0
-747 -746 0
747 -745 746 0
-748 -740 0
-748 -747 0
748 740 747 0
-749 -4 0
-749 -748 0
749 4 748 0
-750 4 0
-750 748 0
750 -4 -748 0
-751 671 0
-751 -750 0
751 -671 750 0
-752 -749 0
-752 -751 0
752 749 751 0
-753 -3 0
-753 -752 0
753 3 752 0
-754 -648 0
-754 -654 0
754 648 654 0
-755 -666 0
-755 754 0
755 666 -754 0
-756 -653 0
-756 -755 0
756 653 755 0
-757 653 0
-757 755 0
757 -653 -755 0
-758 -756 0
-758 -757 0
758 756 757 0
-759 3 0
-759 752 0
759 -3 -752 0
-760 758 0
-760 -759 0
760 -758 759 0
-761 -753 0
-761 -760 0
761 753 760 0
-762 -676 0
-762 761 0
762 676 -761 0
-763 -749 0
-763 -750 0
763 749 750 0
-764 -762 0
-764 763 0
764 762 -763 0
-765 -671 0
-765 -764 0
765 671 764 0
-766 671 0
-766 764 0
766 -671 -764 0
-767 -765 0
-767 -766 0
767 765 766 0
-768 -753 0
-768 -759 0
768 753 759 0
-769 -762 0
-769 768 0
769 762 -768 0
-770 -758 0
-770 -769 0
770 758 769 0
-771 758 0
-771 769 0
771 -758 -769 0
-772 -770 0
-772 -771 0
772 770 771 0
-773 1 0
-773 -22 0
773 -1 22 0
-774 -12 0
-774 -773 0
774 12 773 0
-775 1 0
-775 -762 0
775 -1 762 0
-776 -21 0
-776 -775 0
776 21 775 0
-777 21 0
-777 775 0
777 -21 -775 0
-778 -776 0
-778 -777 0
778 776 777 0
-779 12 0
-779 773 0
779 -12 -773 0
-780 778 0
-780 -779 0
780 -778 779 0
-781 -774 0
-781 -780 0
781 774 780 0
-782 -11 0
-782 -781 0
782 11 781 0
-783 -678 0
-783 -683 0
783 678 683 0
-784 -762 0
-784 783 0
784 762 -783 0
-785 -682 0
-785 -784 0
785 682 784 0
-786 682 0
-786 784 0
786 -682 -784 0
-787 -785 0
-787 -786 0
787 785 786 0
-788 11 0
-788 781 0
788 -11 -781 0
-789 787 0
-789 -788 0
789 -787 788 0
-790 -782 0
-790 -789 0
790 782 789 0
-791 -10 0
-791 -790 0
791 10 790 0
-792 -686 0
-792 -692 0
792 686 692 0
-793 -762 0
-793 792 0
793 762 -792 0
-794 -691 0
-794 -793 0
794 691 793 0
-795 691 0
-795 793 0
795 -691 -793 0
-796 -794 0
-796 -795 0
796 794 795 0
-797 10 0
-797 790 0
797 -10 -790 0
-798 796 0
-798 -797 0
798 -796 797 0
-799 -791 0
-799 -798 0
799 791 798 0
-800 -9 0
-800 -799 0
800 9 799 0
-801 -695 0
-801 -701 0
801 695 701 0
-802 -762 0
-802 801 0
802 762 -801 0
-803 -700 0
-803 -802 0
803 700 802 0
-804 700 0
-804 802 0
804 -700 -802 0
-805 -803 0
-805 -804 0
805 803 804 0
-806 9 0
-806 799 0
806 -9 -799 0
-807 805 0
-807 -806 0
807 -805 806 0
-808 -800 0
-808 -807 0
808 800 807 0
-809 -8 0
-809 -808 0
809 8 808 0
-810 -704 0
-810 -710 0
810 704 710 0
-811 -762 0
-811 810 0
811 762 -810 0
-812 -709 0
-812 -811 0
812 709 811 0
-813 709 0
-813 811 0
813 -709 -811 0
-814 -812 0
-814 -813 0
814 812 813 0
-815 8 0
-815 808 0
815 -8 -808 0
-816 814 0
-816 -815 0
816 -814 815 0
-817 -809 0
-817 -816 0
817 809 816 0
-818 -7 0
-818 -817 0
818 7 817 0
-819 -713 0
-819 -719 0
819 713 719 0
-820 -762 0
-820 819 0
820 762 -819 0
-821 -718 0
-821 -820 0
821 718 820 0
-822 718 0
-822 820 0
822 -718 -820 0
-823 -821 0
-823 -822 0
823 821 822 0
-824 7 0
-824 817 0
824 -7 -817 0
-825 823 0
-825 -824 0
825 -823 824 0
-826 -818 0
-826 -825 0
826 818 825 0
-827 -6 0
-827 -826 0
827 6 826 0
-828 -722 0
-828 -728 0
828 722 728 0
-829 -762 0
-829 828 0
829 762 -828 0
-830 -727 0
-830 -829 0
830 727 829 0
-831 727 0
-831 829 0
831 -727 -829 0
-832 -830 0
-832 -831 0
832 830 831 0
-833 6 0
-833 826 0
833 -6 -826 0
-834 832 0
-834 -833 0
834 -832 833 0
-835 -827 0
-835 -834 0
835 827 834 0
-836 -5 0
-836 -835 0
836 5 835 0
-837 -731 0
-837 -737 0
837 731 737 0
-838 -762 0
-838 837 0
838 762 -837 0
-839 -736 0
-839 -838 0
839 736 838 0
-840 736 0
-840 838 0
840 -736 -838 0
-841 -839 0
-841 -840 0
841 839 840 0
-842 5 0
-842 835 0
842 -5 -835 0
-843 841 0
-843 -842 0
843 -841 842 0
-844 -836 0
-844 -843 0
844 836 843 0
-845 -4 0
-845 -844 0
845 4 844 0
-846 -740 0
-846 -746 0
846 740 746 0
-847 -762 0
-847 846 0
847 762 -846 0
-848 -745 0
-848 -847 0
848 745 847 0
-849 745 0
-849 847 0
849 -745 -847 0
-850 -848 0
-850 -849 0
850 848 849 0
-851 4 0
-851 844 0
851 -4 -844 0
-852 850 0
-852 -851 0
852 -850 851 0
-853 -845 0
-853 -852 0
853 845 852 0
-854 -3 0
-854 -853 0
854 3 853 0
-855 3 0
-855 853 0
855 -3 -853 0
-856 767 0
-856 -855 0
856 -767 855 0
-857 -854 0
-857 -856 0
857 854 856 0
-858 -772 0
-858 857 0
858 772 -857 0
-859 -854 0
-859 -855 0
859 854 855 0
-860 -858 0
-860 859 0
860 858 -859 0
-861 -767 0
-861 -860 0
861 767 860 0
-862 767 0
-862 860 0
862 -767 -860 0
-863 -861 0
-863 -862 0
863 861 862 0
-864 1 0
-864 -2 0
864 -1 2 0
-865 -12 0
-865 -864 0
865 12 864 0
-866 1 0
-866 -858 0
866 -1 858 0
-867 -22 0
-867 -866 0
867 22 866 0
-868 22 0
-868 866 0
868 -22 -866 0
-869 -867 0
-869 -868 0
869 867 868 0
-870 12 0
-870 864 0
870 -12 -864 0
-871 869 0
-871 -870 0
871 -869 870 0
-872 -865 0
-872 -871 0
872 865 871 0
-873 -11 0
-873 -872 0
873 11 872 0
-874 -774 0
-874 -779 0
874 774 779 0
-875 -858 0
-875 874 0
875 858 -874 0
-876 -778 0
-876 -875 0
876 778 875 0
-877 778 0
-877 875 0
877 -778 -875 0
-878 -876 0
-878 -877 0
878 876 877 0
-879 11 0
-879 872 0
879 -11 -872 0
-880 878 0
-880 -879 0
880 -878 879 0
-881 -873 0
-881 -880 0
881 873 880 0
-882 -10 0
-882 -881 0
882 10 881 0
-883 -782 0
-883 -788 0
883 782 788 0
-884 -858 0
-884 883 0
884 858 -883 0
-885 -787 0
-885 -884 0
885 787 884 0
-886 787 0
-886 884 0
886 -787 -884 0
-887 -885 0
-887 -886 0
887 885 886 0
-888 10 0
-888 881 0
888 -10 -881 0
-889 887 0
-889 -888 0
889 -887 888 0
-890 -882 0
-890 -889 0
890 882 889 0
-891 -9 0
-891 -890 0
891 9 890 0
-892 -791 0
-892 -797 0
892 791 797 0
-893 -858 0
-893 892 0
893 858 -892 0
-894 -796 0
-894 -893 0
894 796 893 0
-895 796 0
-895 893 0
895 -796 -893 0
-896 -894 0
-896 -895 0
896 894 895 0
-897 9 0
-897 890 0
897 -9 -890 0
-898 896 0
-898 -897 0
898 -896 897 0
-899 -891 0
-899 -898 0
899 891 898 0
-900 -8 0
-900 -899 0
900 8 899 0
-901 -800 0
-901 -806 0
901 800 806 0
-902 -858 0
-902 901 0
902 858 -901 0
-903 -805 0
-903 -902 0
903 805 902 0
-904 805 0
-904 902 0
904 -805 -902 0
-905 -903 0
-905 -904 0
905 903 904 0
-906 8 0
-906 899 0
906 -8 -899 0
-907 905 0
-907 -906 0
907 -905 906 0
-908 -900 0
-908 -907 0
908 900 907 0
-909 -7 0
-909 -908 0
909 7 908 0
-910 -809 0
-910 -815 0
910 809 815 0
-911 -858 0
-911 910 0
911 858 -910 0
-912 -814 0
-912 -911 0
912 814 911 0
-913 814 0
-913 911 0
913 -814 -911 0
-914 -912 0
-914 -913 0
914 912 913 0
-915 7 0
-915 908 0
915 -7 -908 0
-916 914 0
-916 -915 0
916 -914 915 0
-917 -909 0
-917 -916 0
917 909 916 0
-918 -6 0
-918 -917 0
918 6 917 0
-919 -818 0
-919 -824 0
919 818 824 0
-920 -858 0
-920 919 0
920 858 -919 0
-921 -823 0
-921 -920 0
921 823 920 0
-922 823 0
-922 920 0
922 -823 -920 0
-923 -921 0
-923 -922 0
923 921 922 0
-924 6 0
-924 917 0
924 -6 -917 0
-925 923 0
-925 -924 0
925 -923 924 0
-926 -918 0
-926 -925 0
926 918 925 0
-927 -5 0
-927 -926 0
927 5 926 0
-928 -827 0
-928 -833 0
928 827 833 0
-929 -858 0
-929 928 0
929 858 -928 0
-930 -832 0
-930 -929 0
930 832 929 0
-931 832 0
-931 929 0
931 -832 -929 0
-932 -930 0
-932 -931 0
932 930 931 0
-933 5 0
-933 926 0
933 -5 -926 0
-934 932 0
-934 -933 0
934 -932 933 0
-935 -927 0
-935 -934 0
935 927 934 0
-936 -4 0
-936 -935 0
936 4 935 0
-937 -836 0
-937 -842 0
937 836 842 0
-938 -858 0
-938 937 0
938 858 -937 0
-939 -841 0
-939 -938 0
939 841 938 0
-940 841 0
-940 938 0
940 -841 -938 0
-941 -939 0
-941 -940 0
941 939 940 0
-942 4 0
-942 935 0
942 -4 -935 0
-943 941 0
-943 -942 0
943 -941 942 0
-944 -936 0
-944 -943 0
944 936 943 0
-945 -3 0
-945 -944 0
945 3 944 0
-946 -845 0
-946 -851 0
946 845 851 0
-947 -858 0
-947 946 0
947 858 -946 0
-948 -850 0
-948 -947 0
948 850 947 0
-949 850 0
-949 947 0
949 -850 -947 0
-950 -948 0
-950 -949 0
950 948 949 0
-951 3 0
-951 944 0
951 -3 -944 0
-952 950 0
-952 -951 0
952 -950 951 0
-953 -945 0
-953 -952 0
953 945 952 0
-954 -863 0
-954 953 0
954 863 -953 0
-955 1 0
-955 -954 0
955 -1 954 0
956 2 955 0
957 -2 -955 0
-958 -956 0
-958 -957 0
959 -1 958 0
-960 -865 0
-960 -870 0
960 865 870 0
-961 -954 0
-961 960 0
961 954 -960 0
962 869 961 0
963 -869 -961 0
-964 -962 0
-964 -963 0
-965 -12 0
-965 964 0
966 -959 965 0
967 -12 964 0
-968 -966 0
-968 -967 0
-969 -873 0
-969 -879 0
969 873 879 0
-970 -954 0
-970 969 0
970 954 -969 0
971 878 970 0
972 -878 -970 0
-973 -971 0
-973 -972 0
-974 -11 0
-974 973 0
975 968 974 0
976 -11 973 0
-977 -975 0
-977 -976 0
-978 -882 0
-978 -888 0
978 882 888 0
-979 -954 0
-979 978 0
979 954 -978 0
980 887 979 0
981 -887 -979 0
-982 -980 0
-982 -981 0
-983 -10 0
-983 982 0
984 977 983 0
985 -10 982 0
-986 -984 0
-986 -985 0
-987 -891 0
-987 -897 0
987 891 897 0
-988 -954 0
-988 987 0
988 954 -987 0
989 896 988 0
990 -896 -988 0
-991 -989 0
-991 -990 0
-992 -9 0
-992 991 0
993 986 992 0
994 -9 991 0
-995 -993 0
-995 -994 0
-996 -900 0
-996 -906 0
996 900 906 0
-997 -954 0
-997 996 0
997 954 -996 0
998 905 997 0
999 -905 -997 0
-1000 -998 0
-1000 -999 0
-1001 -8 0
-1001 1000 0
1002 995 1001 0
1003 -8 1000 0
-1004 -1002 0
-1004 -1003 0
-1005 -909 0
-1005 -915 0
1005 909 915 0
-1006 -954 0
-1006 1005 0
1006 954 -1005 0
1007 914 1006 0
1008 -914 -1006 0
-1009 -1007 0
-1009 -1008 0
-1010 -7 0
-1010 1009 0
1011 1004 1010 0
1012 -7 1009 0
-1013 -1011 0
-1013 -1012 0
-1014 -918 0
-1014 -924 0
1014 918 924 0
-1015 -954 0
-1015 1014 0
1015 954 -1014 0
1016 923 1015 0
1017 -923 -1015 0
-1018 -1016 0
-1018 -1017 0
-1019 -6 0
-1019 1018 0
1020 1013 1019 0
1021 -6 1018 0
-1022 -1020 0
-1022 -1021 0
-1023 -927 0
-1023 -933 0
1023 927 933 0
-1024 -954 0
-1024 1023 0
1024 954 -1023 0
1025 932 1024 0
1026 -932 -1024 0
-1027 -1025 0
-1027 -1026 0
-1028 -5 0
-1028 1027 0
1029 1022 1028 0
1030 -5 1027 0
-1031 -1029 0
-1031 -1030 0
-1032 -936 0
-1032 -942 0
1032 936 942 0
-1033 -954 0
-1033 1032 0
1033 954 -1032 0
1034 941 1033 0
1035 -941 -1033 0
-1036 -1034 0
-1036 -1035 0
-1037 -4 0
-1037 1036 0
1038 1031 1037 0
1039 -4 1036 0
-1040 -1038 0
-1040 -1039 0
-1041 -945 0
-1041 -951 0
1041 945 951 0
-1042 -954 0
-1042 1041 0
1042 954 -1041 0
1043 950 1042 0
1044 -950 -1042 0
-1045 -1043 0
-1045 -1044 0
-1046 -3 0
-1046 1045 0
1047 1040 1046 0
1048 -3 1045 0
-1049 -1047 0
-1049 -1048 0
1050 3 4 0
1051 5 -1050 0
1052 6 -1051 0
1053 7 -1052 0
1054 8 -1053 0
1055 9 -1054 0
1056 10 -1055 0
1057 11 -1056 0
1058 12 -1057 0
1059 1 -1058 0
-1060 1049 0
-1060 -1059 0
1060 0
